82.0 76.0 0
96.0 44.0 19
50.0 5.0 21
49.0 8.0 6
13.0 7.0 19
29.0 89.0 7
58.0 30.0 12
84.0 39.0 16
14.0 24.0 6
2.0 39.0 16
3.0 82.0 8
5.0 10.0 14
98.0 52.0 21
84.0 25.0 16
61.0 59.0 3
1.0 65.0 22
88.0 51.0 18
91.0 2.0 19
19.0 32.0 1
93.0 3.0 24
50.0 93.0 8
98.0 14.0 12
5.0 42.0 4
42.0 9.0 8
61.0 62.0 24
9.0 97.0 24
80.0 55.0 2
57.0 69.0 20
23.0 15.0 15
20.0 70.0 2
85.0 60.0 14
98.0 5.0 9
